c Reduced graph for r16 generated by Cyril Grelier
p edge 186 1837
e 1 8
e 1 15
e 1 22
e 1 27
e 1 41
e 1 45
e 1 54
e 1 55
e 1 57
e 1 66
e 1 71
e 1 78
e 1 99
e 1 100
e 1 105
e 1 116
e 1 121
e 1 130
e 1 141
e 1 154
e 1 157
e 1 162
e 1 177
e 1 182
e 2 10
e 2 31
e 2 47
e 2 50
e 2 52
e 2 54
e 2 86
e 2 89
e 2 90
e 2 95
e 2 97
e 2 111
e 2 114
e 2 115
e 2 121
e 2 129
e 2 133
e 2 150
e 2 155
e 2 169
e 2 174
e 3 18
e 3 19
e 3 27
e 3 38
e 3 52
e 3 83
e 3 91
e 3 101
e 3 103
e 3 107
e 3 116
e 3 133
e 3 139
e 3 144
e 3 158
e 3 163
e 3 175
e 3 178
e 3 179
e 4 5
e 4 13
e 4 35
e 4 57
e 4 64
e 4 70
e 4 82
e 4 117
e 4 128
e 4 135
e 4 139
e 4 141
e 4 148
e 4 161
e 4 164
e 5 11
e 5 28
e 5 29
e 5 30
e 5 36
e 5 40
e 5 57
e 5 64
e 5 70
e 5 82
e 5 84
e 5 117
e 5 124
e 5 127
e 5 132
e 5 135
e 5 149
e 5 161
e 5 175
e 6 7
e 6 10
e 6 11
e 6 18
e 6 33
e 6 34
e 6 59
e 6 68
e 6 69
e 6 80
e 6 85
e 6 102
e 6 115
e 6 122
e 6 123
e 6 142
e 6 146
e 6 161
e 6 163
e 6 165
e 7 10
e 7 19
e 7 30
e 7 33
e 7 34
e 7 55
e 7 58
e 7 59
e 7 69
e 7 87
e 7 92
e 7 142
e 7 146
e 7 155
e 7 161
e 7 163
e 7 165
e 7 167
e 8 22
e 8 27
e 8 33
e 8 36
e 8 41
e 8 43
e 8 49
e 8 55
e 8 57
e 8 61
e 8 62
e 8 66
e 8 67
e 8 88
e 8 94
e 8 105
e 8 106
e 8 121
e 8 125
e 8 128
e 8 154
e 8 157
e 8 169
e 8 178
e 8 185
e 9 16
e 9 20
e 9 22
e 9 40
e 9 44
e 9 53
e 9 75
e 9 77
e 9 94
e 9 98
e 9 100
e 9 114
e 9 118
e 9 138
e 9 145
e 9 159
e 9 170
e 9 173
e 9 180
e 10 31
e 10 33
e 10 34
e 10 47
e 10 50
e 10 59
e 10 69
e 10 89
e 10 97
e 10 111
e 10 121
e 10 133
e 10 142
e 10 146
e 10 161
e 10 163
e 10 165
e 10 174
e 11 18
e 11 28
e 11 29
e 11 30
e 11 36
e 11 40
e 11 68
e 11 80
e 11 84
e 11 85
e 11 102
e 11 115
e 11 122
e 11 123
e 11 124
e 11 127
e 11 132
e 11 149
e 11 175
e 12 25
e 12 45
e 12 51
e 12 65
e 12 66
e 12 102
e 12 103
e 12 108
e 12 126
e 12 129
e 12 131
e 12 135
e 12 136
e 12 145
e 12 149
e 12 153
e 12 156
e 12 160
e 12 165
e 12 166
e 12 181
e 12 185
e 13 17
e 13 28
e 13 35
e 13 41
e 13 46
e 13 76
e 13 128
e 13 138
e 13 139
e 13 140
e 13 141
e 13 148
e 13 164
e 13 186
e 14 25
e 14 26
e 14 39
e 14 64
e 14 67
e 14 76
e 14 79
e 14 85
e 14 92
e 14 93
e 14 96
e 14 109
e 14 111
e 14 119
e 14 151
e 14 158
e 14 162
e 14 170
e 14 173
e 15 20
e 15 31
e 15 45
e 15 49
e 15 54
e 15 71
e 15 78
e 15 99
e 15 100
e 15 108
e 15 116
e 15 119
e 15 123
e 15 130
e 15 141
e 15 162
e 15 167
e 15 172
e 15 177
e 15 182
e 16 23
e 16 42
e 16 53
e 16 65
e 16 72
e 16 75
e 16 77
e 16 83
e 16 94
e 16 95
e 16 98
e 16 100
e 16 138
e 16 142
e 16 157
e 16 159
e 16 173
e 17 28
e 17 37
e 17 41
e 17 46
e 17 60
e 17 61
e 17 70
e 17 74
e 17 76
e 17 91
e 17 97
e 17 99
e 17 138
e 17 140
e 17 152
e 17 156
e 17 186
e 18 19
e 18 68
e 18 80
e 18 83
e 18 85
e 18 102
e 18 115
e 18 116
e 18 122
e 18 123
e 18 133
e 18 144
e 18 158
e 18 178
e 19 30
e 19 55
e 19 58
e 19 83
e 19 87
e 19 92
e 19 116
e 19 133
e 19 144
e 19 155
e 19 158
e 19 167
e 19 178
e 20 22
e 20 31
e 20 40
e 20 44
e 20 49
e 20 108
e 20 114
e 20 118
e 20 119
e 20 123
e 20 145
e 20 167
e 20 170
e 20 172
e 20 180
e 21 24
e 21 34
e 21 35
e 21 50
e 21 60
e 21 62
e 21 68
e 21 77
e 21 109
e 21 113
e 21 118
e 21 126
e 21 127
e 21 134
e 21 137
e 21 140
e 21 143
e 21 144
e 21 150
e 21 171
e 22 27
e 22 40
e 22 41
e 22 44
e 22 55
e 22 57
e 22 66
e 22 105
e 22 114
e 22 118
e 22 121
e 22 145
e 22 154
e 22 157
e 22 170
e 22 180
e 23 42
e 23 43
e 23 58
e 23 65
e 23 72
e 23 79
e 23 83
e 23 95
e 23 104
e 23 131
e 23 142
e 23 157
e 23 179
e 23 182
e 23 183
e 23 184
e 23 186
e 24 34
e 24 35
e 24 60
e 24 77
e 24 113
e 24 126
e 24 127
e 24 130
e 24 134
e 24 144
e 24 150
e 25 51
e 25 64
e 25 66
e 25 67
e 25 76
e 25 85
e 25 92
e 25 93
e 25 108
e 25 111
e 25 129
e 25 131
e 25 149
e 25 151
e 25 153
e 25 156
e 25 162
e 25 165
e 25 170
e 25 181
e 26 39
e 26 48
e 26 73
e 26 79
e 26 81
e 26 96
e 26 101
e 26 109
e 26 119
e 26 125
e 26 158
e 26 173
e 26 174
e 26 181
e 27 38
e 27 41
e 27 52
e 27 55
e 27 57
e 27 66
e 27 91
e 27 101
e 27 103
e 27 105
e 27 107
e 27 121
e 27 139
e 27 154
e 27 157
e 27 163
e 27 175
e 27 179
e 28 29
e 28 30
e 28 36
e 28 40
e 28 41
e 28 46
e 28 76
e 28 84
e 28 124
e 28 127
e 28 132
e 28 138
e 28 140
e 28 149
e 28 175
e 28 186
e 29 30
e 29 36
e 29 40
e 29 69
e 29 75
e 29 84
e 29 93
e 29 105
e 29 124
e 29 127
e 29 132
e 29 147
e 29 149
e 29 152
e 29 160
e 29 171
e 29 175
e 30 36
e 30 40
e 30 55
e 30 58
e 30 84
e 30 87
e 30 92
e 30 124
e 30 127
e 30 132
e 30 149
e 30 155
e 30 167
e 30 175
e 31 47
e 31 49
e 31 50
e 31 89
e 31 97
e 31 108
e 31 111
e 31 119
e 31 121
e 31 123
e 31 133
e 31 167
e 31 172
e 31 174
e 32 37
e 32 39
e 32 44
e 32 56
e 32 63
e 32 72
e 32 88
e 32 89
e 32 107
e 32 112
e 32 113
e 32 117
e 32 120
e 32 122
e 32 124
e 32 136
e 32 137
e 32 146
e 32 147
e 32 148
e 32 159
e 32 177
e 33 34
e 33 36
e 33 43
e 33 49
e 33 59
e 33 61
e 33 62
e 33 67
e 33 69
e 33 88
e 33 94
e 33 106
e 33 125
e 33 128
e 33 142
e 33 146
e 33 161
e 33 163
e 33 165
e 33 169
e 33 178
e 33 185
e 34 35
e 34 59
e 34 60
e 34 69
e 34 77
e 34 113
e 34 126
e 34 127
e 34 134
e 34 142
e 34 144
e 34 146
e 34 150
e 34 161
e 34 163
e 34 165
e 35 60
e 35 77
e 35 113
e 35 126
e 35 127
e 35 128
e 35 134
e 35 139
e 35 141
e 35 144
e 35 148
e 35 150
e 35 164
e 36 40
e 36 43
e 36 49
e 36 61
e 36 62
e 36 67
e 36 84
e 36 88
e 36 94
e 36 106
e 36 124
e 36 125
e 36 127
e 36 128
e 36 132
e 36 149
e 36 169
e 36 175
e 36 178
e 36 185
e 37 56
e 37 60
e 37 61
e 37 70
e 37 74
e 37 91
e 37 97
e 37 99
e 37 112
e 37 124
e 37 136
e 37 137
e 37 146
e 37 148
e 37 152
e 37 156
e 37 159
e 38 42
e 38 46
e 38 52
e 38 71
e 38 80
e 38 91
e 38 101
e 38 103
e 38 107
e 38 112
e 38 134
e 38 139
e 38 153
e 38 163
e 38 168
e 38 175
e 38 179
e 38 180
e 39 44
e 39 63
e 39 72
e 39 79
e 39 88
e 39 89
e 39 96
e 39 107
e 39 109
e 39 113
e 39 117
e 39 119
e 39 120
e 39 122
e 39 147
e 39 158
e 39 173
e 39 177
e 40 44
e 40 84
e 40 114
e 40 118
e 40 124
e 40 127
e 40 132
e 40 145
e 40 149
e 40 170
e 40 175
e 40 180
e 41 46
e 41 55
e 41 57
e 41 66
e 41 76
e 41 105
e 41 121
e 41 138
e 41 140
e 41 154
e 41 157
e 41 186
e 42 46
e 42 65
e 42 71
e 42 72
e 42 80
e 42 83
e 42 95
e 42 112
e 42 134
e 42 142
e 42 153
e 42 157
e 42 168
e 42 180
e 43 49
e 43 58
e 43 61
e 43 62
e 43 67
e 43 79
e 43 88
e 43 94
e 43 104
e 43 106
e 43 125
e 43 128
e 43 131
e 43 169
e 43 178
e 43 179
e 43 182
e 43 183
e 43 184
e 43 185
e 43 186
e 44 63
e 44 72
e 44 88
e 44 89
e 44 107
e 44 113
e 44 114
e 44 117
e 44 118
e 44 120
e 44 122
e 44 145
e 44 147
e 44 170
e 44 177
e 44 180
e 45 54
e 45 65
e 45 71
e 45 78
e 45 99
e 45 100
e 45 102
e 45 103
e 45 116
e 45 126
e 45 130
e 45 135
e 45 136
e 45 141
e 45 145
e 45 160
e 45 162
e 45 166
e 45 177
e 45 182
e 45 185
e 46 71
e 46 76
e 46 80
e 46 112
e 46 134
e 46 138
e 46 140
e 46 153
e 46 168
e 46 180
e 46 186
e 47 50
e 47 51
e 47 56
e 47 78
e 47 82
e 47 87
e 47 89
e 47 96
e 47 97
e 47 106
e 47 110
e 47 111
e 47 121
e 47 133
e 47 174
e 47 176
e 48 59
e 48 63
e 48 73
e 48 81
e 48 86
e 48 101
e 48 110
e 48 125
e 48 132
e 48 168
e 48 174
e 48 181
e 48 183
e 49 61
e 49 62
e 49 67
e 49 88
e 49 94
e 49 106
e 49 108
e 49 119
e 49 123
e 49 125
e 49 128
e 49 167
e 49 169
e 49 172
e 49 178
e 49 185
e 50 62
e 50 68
e 50 89
e 50 97
e 50 109
e 50 111
e 50 118
e 50 121
e 50 133
e 50 137
e 50 140
e 50 143
e 50 171
e 50 174
e 51 56
e 51 66
e 51 78
e 51 82
e 51 87
e 51 96
e 51 106
e 51 108
e 51 110
e 51 129
e 51 131
e 51 149
e 51 153
e 51 156
e 51 165
e 51 176
e 51 181
e 52 54
e 52 86
e 52 90
e 52 91
e 52 95
e 52 101
e 52 103
e 52 107
e 52 114
e 52 115
e 52 129
e 52 139
e 52 150
e 52 155
e 52 163
e 52 169
e 52 175
e 52 179
e 53 73
e 53 74
e 53 75
e 53 77
e 53 84
e 53 94
e 53 98
e 53 100
e 53 138
e 53 143
e 53 159
e 53 172
e 53 173
e 53 184
e 54 71
e 54 78
e 54 86
e 54 90
e 54 95
e 54 99
e 54 100
e 54 114
e 54 115
e 54 116
e 54 129
e 54 130
e 54 141
e 54 150
e 54 155
e 54 162
e 54 169
e 54 177
e 54 182
e 55 57
e 55 58
e 55 66
e 55 87
e 55 92
e 55 105
e 55 121
e 55 154
e 55 155
e 55 157
e 55 167
e 56 78
e 56 82
e 56 87
e 56 96
e 56 106
e 56 110
e 56 112
e 56 124
e 56 136
e 56 137
e 56 146
e 56 148
e 56 159
e 56 176
e 57 64
e 57 66
e 57 70
e 57 82
e 57 105
e 57 117
e 57 121
e 57 135
e 57 154
e 57 157
e 57 161
e 58 79
e 58 87
e 58 92
e 58 104
e 58 131
e 58 155
e 58 167
e 58 179
e 58 182
e 58 183
e 58 184
e 58 186
e 59 63
e 59 69
e 59 86
e 59 110
e 59 132
e 59 142
e 59 146
e 59 161
e 59 163
e 59 165
e 59 168
e 59 183
e 60 61
e 60 70
e 60 74
e 60 77
e 60 91
e 60 97
e 60 99
e 60 113
e 60 126
e 60 127
e 60 134
e 60 144
e 60 150
e 60 152
e 60 156
e 61 62
e 61 67
e 61 70
e 61 74
e 61 88
e 61 91
e 61 94
e 61 97
e 61 99
e 61 106
e 61 125
e 61 128
e 61 152
e 61 156
e 61 169
e 61 178
e 61 185
e 62 67
e 62 68
e 62 88
e 62 94
e 62 106
e 62 109
e 62 118
e 62 125
e 62 128
e 62 137
e 62 140
e 62 143
e 62 169
e 62 171
e 62 178
e 62 185
e 63 72
e 63 86
e 63 88
e 63 89
e 63 107
e 63 110
e 63 113
e 63 117
e 63 120
e 63 122
e 63 132
e 63 147
e 63 168
e 63 177
e 63 183
e 64 67
e 64 70
e 64 76
e 64 82
e 64 85
e 64 92
e 64 93
e 64 111
e 64 117
e 64 135
e 64 151
e 64 161
e 64 162
e 64 170
e 65 72
e 65 83
e 65 95
e 65 102
e 65 103
e 65 126
e 65 135
e 65 136
e 65 142
e 65 145
e 65 157
e 65 160
e 65 166
e 65 185
e 66 105
e 66 108
e 66 121
e 66 129
e 66 131
e 66 149
e 66 153
e 66 154
e 66 156
e 66 157
e 66 165
e 66 181
e 67 76
e 67 85
e 67 88
e 67 92
e 67 93
e 67 94
e 67 106
e 67 111
e 67 125
e 67 128
e 67 151
e 67 162
e 67 169
e 67 170
e 67 178
e 67 185
e 68 80
e 68 85
e 68 102
e 68 109
e 68 115
e 68 118
e 68 122
e 68 123
e 68 137
e 68 140
e 68 143
e 68 171
e 69 75
e 69 93
e 69 105
e 69 142
e 69 146
e 69 147
e 69 152
e 69 160
e 69 161
e 69 163
e 69 165
e 69 171
e 70 74
e 70 82
e 70 91
e 70 97
e 70 99
e 70 117
e 70 135
e 70 152
e 70 156
e 70 161
e 71 78
e 71 80
e 71 99
e 71 100
e 71 112
e 71 116
e 71 130
e 71 134
e 71 141
e 71 153
e 71 162
e 71 168
e 71 177
e 71 180
e 71 182
e 72 83
e 72 88
e 72 89
e 72 95
e 72 107
e 72 113
e 72 117
e 72 120
e 72 122
e 72 142
e 72 147
e 72 157
e 72 177
e 73 74
e 73 81
e 73 84
e 73 101
e 73 125
e 73 143
e 73 172
e 73 174
e 73 181
e 73 184
e 74 84
e 74 91
e 74 97
e 74 99
e 74 143
e 74 152
e 74 156
e 74 172
e 74 184
e 75 77
e 75 93
e 75 94
e 75 98
e 75 100
e 75 105
e 75 138
e 75 147
e 75 152
e 75 159
e 75 160
e 75 171
e 75 173
e 76 85
e 76 92
e 76 93
e 76 111
e 76 138
e 76 140
e 76 151
e 76 162
e 76 170
e 76 186
e 77 94
e 77 98
e 77 100
e 77 113
e 77 126
e 77 127
e 77 134
e 77 138
e 77 144
e 77 150
e 77 159
e 77 173
e 78 82
e 78 87
e 78 96
e 78 99
e 78 100
e 78 106
e 78 110
e 78 116
e 78 130
e 78 141
e 78 162
e 78 176
e 78 177
e 78 182
e 79 96
e 79 104
e 79 109
e 79 119
e 79 131
e 79 158
e 79 173
e 79 179
e 79 182
e 79 183
e 79 184
e 79 186
e 80 85
e 80 102
e 80 112
e 80 115
e 80 122
e 80 123
e 80 134
e 80 153
e 80 168
e 80 180
e 81 90
e 81 98
e 81 101
e 81 104
e 81 120
e 81 125
e 81 151
e 81 154
e 81 164
e 81 166
e 81 174
e 81 176
e 81 181
e 82 87
e 82 96
e 82 106
e 82 110
e 82 117
e 82 135
e 82 161
e 82 176
e 83 95
e 83 116
e 83 133
e 83 142
e 83 144
e 83 157
e 83 158
e 83 178
e 84 124
e 84 127
e 84 132
e 84 143
e 84 149
e 84 172
e 84 175
e 84 184
e 85 92
e 85 93
e 85 102
e 85 111
e 85 115
e 85 122
e 85 123
e 85 151
e 85 162
e 85 170
e 86 90
e 86 95
e 86 110
e 86 114
e 86 115
e 86 129
e 86 132
e 86 150
e 86 155
e 86 168
e 86 169
e 86 183
e 87 92
e 87 96
e 87 106
e 87 110
e 87 155
e 87 167
e 87 176
e 88 89
e 88 94
e 88 106
e 88 107
e 88 113
e 88 117
e 88 120
e 88 122
e 88 125
e 88 128
e 88 147
e 88 169
e 88 177
e 88 178
e 88 185
e 89 97
e 89 107
e 89 111
e 89 113
e 89 117
e 89 120
e 89 121
e 89 122
e 89 133
e 89 147
e 89 174
e 89 177
e 90 95
e 90 98
e 90 104
e 90 114
e 90 115
e 90 120
e 90 129
e 90 150
e 90 151
e 90 154
e 90 155
e 90 164
e 90 166
e 90 169
e 90 176
e 91 97
e 91 99
e 91 101
e 91 103
e 91 107
e 91 139
e 91 152
e 91 156
e 91 163
e 91 175
e 91 179
e 92 93
e 92 111
e 92 151
e 92 155
e 92 162
e 92 167
e 92 170
e 93 105
e 93 111
e 93 147
e 93 151
e 93 152
e 93 160
e 93 162
e 93 170
e 93 171
e 94 98
e 94 100
e 94 106
e 94 125
e 94 128
e 94 138
e 94 159
e 94 169
e 94 173
e 94 178
e 94 185
e 95 114
e 95 115
e 95 129
e 95 142
e 95 150
e 95 155
e 95 157
e 95 169
e 96 106
e 96 109
e 96 110
e 96 119
e 96 158
e 96 173
e 96 176
e 97 99
e 97 111
e 97 121
e 97 133
e 97 152
e 97 156
e 97 174
e 98 100
e 98 104
e 98 120
e 98 138
e 98 151
e 98 154
e 98 159
e 98 164
e 98 166
e 98 173
e 98 176
e 99 100
e 99 116
e 99 130
e 99 141
e 99 152
e 99 156
e 99 162
e 99 177
e 99 182
e 100 116
e 100 130
e 100 138
e 100 141
e 100 159
e 100 162
e 100 173
e 100 177
e 100 182
e 101 103
e 101 107
e 101 125
e 101 139
e 101 163
e 101 174
e 101 175
e 101 179
e 101 181
e 102 103
e 102 115
e 102 122
e 102 123
e 102 126
e 102 135
e 102 136
e 102 145
e 102 160
e 102 166
e 102 185
e 103 107
e 103 126
e 103 135
e 103 136
e 103 139
e 103 145
e 103 160
e 103 163
e 103 166
e 103 175
e 103 179
e 103 185
e 104 120
e 104 131
e 104 151
e 104 154
e 104 164
e 104 166
e 104 176
e 104 179
e 104 182
e 104 183
e 104 184
e 104 186
e 105 121
e 105 147
e 105 152
e 105 154
e 105 157
e 105 160
e 105 171
e 106 110
e 106 125
e 106 128
e 106 169
e 106 176
e 106 178
e 106 185
e 107 113
e 107 117
e 107 120
e 107 122
e 107 139
e 107 147
e 107 163
e 107 175
e 107 177
e 107 179
e 108 119
e 108 123
e 108 129
e 108 131
e 108 149
e 108 153
e 108 156
e 108 165
e 108 167
e 108 172
e 108 181
e 109 118
e 109 119
e 109 137
e 109 140
e 109 143
e 109 158
e 109 171
e 109 173
e 110 132
e 110 168
e 110 176
e 110 183
e 111 121
e 111 133
e 111 151
e 111 162
e 111 170
e 111 174
e 112 124
e 112 134
e 112 136
e 112 137
e 112 146
e 112 148
e 112 153
e 112 159
e 112 168
e 112 180
e 113 117
e 113 120
e 113 122
e 113 126
e 113 127
e 113 134
e 113 144
e 113 147
e 113 150
e 113 177
e 114 115
e 114 118
e 114 129
e 114 145
e 114 150
e 114 155
e 114 169
e 114 170
e 114 180
e 115 122
e 115 123
e 115 129
e 115 150
e 115 155
e 115 169
e 116 130
e 116 133
e 116 141
e 116 144
e 116 158
e 116 162
e 116 177
e 116 178
e 116 182
e 117 120
e 117 122
e 117 135
e 117 147
e 117 161
e 117 177
e 118 137
e 118 140
e 118 143
e 118 145
e 118 170
e 118 171
e 118 180
e 119 123
e 119 158
e 119 167
e 119 172
e 119 173
e 120 122
e 120 147
e 120 151
e 120 154
e 120 164
e 120 166
e 120 176
e 120 177
e 121 133
e 121 154
e 121 157
e 121 174
e 122 123
e 122 147
e 122 177
e 123 167
e 123 172
e 124 127
e 124 132
e 124 136
e 124 137
e 124 146
e 124 148
e 124 149
e 124 159
e 124 175
e 125 128
e 125 169
e 125 174
e 125 178
e 125 181
e 125 185
e 126 127
e 126 134
e 126 135
e 126 136
e 126 144
e 126 145
e 126 150
e 126 160
e 126 166
e 126 185
e 127 132
e 127 134
e 127 144
e 127 149
e 127 150
e 127 175
e 128 139
e 128 141
e 128 148
e 128 164
e 128 169
e 128 178
e 128 185
e 129 131
e 129 149
e 129 150
e 129 153
e 129 155
e 129 156
e 129 165
e 129 169
e 129 181
e 130 141
e 130 162
e 130 177
e 130 182
e 131 149
e 131 153
e 131 156
e 131 165
e 131 179
e 131 181
e 131 182
e 131 183
e 131 184
e 131 186
e 132 149
e 132 168
e 132 175
e 132 183
e 133 144
e 133 158
e 133 174
e 133 178
e 134 144
e 134 150
e 134 153
e 134 168
e 134 180
e 135 136
e 135 145
e 135 160
e 135 161
e 135 166
e 135 185
e 136 137
e 136 145
e 136 146
e 136 148
e 136 159
e 136 160
e 136 166
e 136 185
e 137 140
e 137 143
e 137 146
e 137 148
e 137 159
e 137 171
e 138 140
e 138 159
e 138 173
e 138 186
e 139 141
e 139 148
e 139 163
e 139 164
e 139 175
e 139 179
e 140 143
e 140 171
e 140 186
e 141 148
e 141 162
e 141 164
e 141 177
e 141 182
e 142 146
e 142 157
e 142 161
e 142 163
e 142 165
e 143 171
e 143 172
e 143 184
e 144 150
e 144 158
e 144 178
e 145 160
e 145 166
e 145 170
e 145 180
e 145 185
e 146 148
e 146 159
e 146 161
e 146 163
e 146 165
e 147 152
e 147 160
e 147 171
e 147 177
e 148 159
e 148 164
e 149 153
e 149 156
e 149 165
e 149 175
e 149 181
e 150 155
e 150 169
e 151 154
e 151 162
e 151 164
e 151 166
e 151 170
e 151 176
e 152 156
e 152 160
e 152 171
e 153 156
e 153 165
e 153 168
e 153 180
e 153 181
e 154 157
e 154 164
e 154 166
e 154 176
e 155 167
e 155 169
e 156 165
e 156 181
e 158 173
e 158 178
e 159 173
e 160 166
e 160 171
e 160 185
e 161 163
e 161 165
e 162 170
e 162 177
e 162 182
e 163 165
e 163 175
e 163 179
e 164 166
e 164 176
e 165 181
e 166 176
e 166 185
e 167 172
e 168 180
e 168 183
e 169 178
e 169 185
e 170 180
e 172 184
e 174 181
e 175 179
e 177 182
e 178 185
e 179 182
e 179 183
e 179 184
e 179 186
e 182 183
e 182 184
e 182 186
e 183 184
e 183 186
e 184 186
